
;this file is automatically generated: Wed Apr 21 11:03:29 CST 2021

;declarations generated

(declare-fun type_e929f697_27cb_4ab0_84ac_d1247fb4ad37_Class6 ( Int) Bool)
(declare-fun type_e929f697_27cb_4ab0_84ac_d1247fb4ad37_Class5 ( Int) Bool)
(declare-fun type_e929f697_27cb_4ab0_84ac_d1247fb4ad37_Class4 ( Int) Bool)
(declare-fun type_e929f697_27cb_4ab0_84ac_d1247fb4ad37_Class3 ( Int) Bool)
(declare-fun type_e929f697_27cb_4ab0_84ac_d1247fb4ad37_Class2 ( Int) Bool)
(declare-fun type_e929f697_27cb_4ab0_84ac_d1247fb4ad37_Class1 ( Int) Bool)
(declare-fun type_e929f697_27cb_4ab0_84ac_d1247fb4ad37_Class0 ( Int) Bool)
(declare-fun oclExcludes ( Int Int) Bool)
(declare-fun type_e929f697_27cb_4ab0_84ac_d1247fb4ad37_Class40 ( Int) Bool)
(declare-fun type_e929f697_27cb_4ab0_84ac_d1247fb4ad37_Class43 ( Int) Bool)
(declare-fun type_e929f697_27cb_4ab0_84ac_d1247fb4ad37_Class44 ( Int) Bool)
(declare-fun type_e929f697_27cb_4ab0_84ac_d1247fb4ad37_Class41 ( Int) Bool)
(declare-fun type_e929f697_27cb_4ab0_84ac_d1247fb4ad37_Class42 ( Int) Bool)
(declare-fun type_e929f697_27cb_4ab0_84ac_d1247fb4ad37_Class47 ( Int) Bool)
(declare-fun type_e929f697_27cb_4ab0_84ac_d1247fb4ad37_Class48 ( Int) Bool)
(declare-fun type_e929f697_27cb_4ab0_84ac_d1247fb4ad37_Class45 ( Int) Bool)
(declare-fun type_e929f697_27cb_4ab0_84ac_d1247fb4ad37_Class46 ( Int) Bool)
(declare-fun type_e929f697_27cb_4ab0_84ac_d1247fb4ad37_Class9 ( Int) Bool)
(declare-fun type_e929f697_27cb_4ab0_84ac_d1247fb4ad37_Class49 ( Int) Bool)
(declare-fun type_e929f697_27cb_4ab0_84ac_d1247fb4ad37_Class8 ( Int) Bool)
(declare-fun type_e929f697_27cb_4ab0_84ac_d1247fb4ad37_Class7 ( Int) Bool)
(declare-fun type_e929f697_27cb_4ab0_84ac_d1247fb4ad37_Class50 ( Int) Bool)
(declare-fun type_e929f697_27cb_4ab0_84ac_d1247fb4ad37_Class51 ( Int) Bool)
(declare-fun type_e929f697_27cb_4ab0_84ac_d1247fb4ad37_Class54 ( Int) Bool)
(declare-fun type_e929f697_27cb_4ab0_84ac_d1247fb4ad37_Class55 ( Int) Bool)
(declare-fun type_e929f697_27cb_4ab0_84ac_d1247fb4ad37_Class52 ( Int) Bool)
(declare-fun type_e929f697_27cb_4ab0_84ac_d1247fb4ad37_Class53 ( Int) Bool)
(declare-fun type_e929f697_27cb_4ab0_84ac_d1247fb4ad37_Class56 ( Int) Bool)
(declare-fun Cardinality ( Int) Int)
(declare-fun obj_2168b599_b850_4412_9fed_620c29bb2beb ( Int) Int)
(declare-fun oclSelect ( Int Bool) Int)
(declare-fun Enum0 ( Int) Int)
(declare-fun Enum1 ( Int) Int)
(declare-fun Enum2 ( Int) Int)
(declare-fun container_ ( Int) Int)
(declare-fun class2_Class2IntAttr4 ( Int) Int)
(declare-fun class2_Class2IntAttr3 ( Int) Int)
(declare-fun type_e929f697_27cb_4ab0_84ac_d1247fb4ad37_Class21 ( Int) Bool)
(declare-fun type_e929f697_27cb_4ab0_84ac_d1247fb4ad37_Class22 ( Int) Bool)
(declare-fun type_e929f697_27cb_4ab0_84ac_d1247fb4ad37_Class20 ( Int) Bool)
(declare-fun type_e929f697_27cb_4ab0_84ac_d1247fb4ad37_Class25 ( Int) Bool)
(declare-fun type_e929f697_27cb_4ab0_84ac_d1247fb4ad37_Class26 ( Int) Bool)
(declare-fun type_e929f697_27cb_4ab0_84ac_d1247fb4ad37_Class23 ( Int) Bool)
(declare-fun type_e929f697_27cb_4ab0_84ac_d1247fb4ad37_Class24 ( Int) Bool)
(declare-fun type_e929f697_27cb_4ab0_84ac_d1247fb4ad37_Class29 ( Int) Bool)
(declare-fun type_e929f697_27cb_4ab0_84ac_d1247fb4ad37_Class27 ( Int) Bool)
(declare-fun type_e929f697_27cb_4ab0_84ac_d1247fb4ad37_Class28 ( Int) Bool)
(declare-fun oclIncludes ( Int Int) Bool)
(declare-fun type_e929f697_27cb_4ab0_84ac_d1247fb4ad37_Class32 ( Int) Bool)
(declare-fun type_e929f697_27cb_4ab0_84ac_d1247fb4ad37_Class33 ( Int) Bool)
(declare-fun type_e929f697_27cb_4ab0_84ac_d1247fb4ad37_Class30 ( Int) Bool)
(declare-fun type_e929f697_27cb_4ab0_84ac_d1247fb4ad37_Class31 ( Int) Bool)
(declare-fun type_e929f697_27cb_4ab0_84ac_d1247fb4ad37_Class36 ( Int) Bool)
(declare-fun type_e929f697_27cb_4ab0_84ac_d1247fb4ad37_Class37 ( Int) Bool)
(declare-fun type_e929f697_27cb_4ab0_84ac_d1247fb4ad37_Class34 ( Int) Bool)
(declare-fun type_e929f697_27cb_4ab0_84ac_d1247fb4ad37_Class35 ( Int) Bool)
(declare-fun type_e929f697_27cb_4ab0_84ac_d1247fb4ad37_Class38 ( Int) Bool)
(declare-fun type_e929f697_27cb_4ab0_84ac_d1247fb4ad37_Class39 ( Int) Bool)
(declare-fun ObjAt ( Int Int) Int)
(declare-fun type_e929f697_27cb_4ab0_84ac_d1247fb4ad37_Class10 ( Int) Bool)
(declare-fun type_e929f697_27cb_4ab0_84ac_d1247fb4ad37_Class11 ( Int) Bool)
(declare-fun type_e929f697_27cb_4ab0_84ac_d1247fb4ad37_Class14 ( Int) Bool)
(declare-fun type_e929f697_27cb_4ab0_84ac_d1247fb4ad37_Class15 ( Int) Bool)
(declare-fun type_e929f697_27cb_4ab0_84ac_d1247fb4ad37_Class12 ( Int) Bool)
(declare-fun type_e929f697_27cb_4ab0_84ac_d1247fb4ad37_Class13 ( Int) Bool)
(declare-fun type_e929f697_27cb_4ab0_84ac_d1247fb4ad37_Class18 ( Int) Bool)
(declare-fun type_e929f697_27cb_4ab0_84ac_d1247fb4ad37_Class19 ( Int) Bool)
(declare-fun type_e929f697_27cb_4ab0_84ac_d1247fb4ad37_Class16 ( Int) Bool)
(declare-fun type_e929f697_27cb_4ab0_84ac_d1247fb4ad37_Class17 ( Int) Bool)

;formula(s) generated
(assert (! (forall ((c2_1 Int)(c2_2 Int)) (=> (and (and (and (and (and (and (and ( type_e929f697_27cb_4ab0_84ac_d1247fb4ad37_Class2 c2_1 )  ( type_e929f697_27cb_4ab0_84ac_d1247fb4ad37_Class36 c2_1 ) ) ( type_e929f697_27cb_4ab0_84ac_d1247fb4ad37_Class35 c2_1 ) ) ( type_e929f697_27cb_4ab0_84ac_d1247fb4ad37_Class27 c2_1 ) ) ( type_e929f697_27cb_4ab0_84ac_d1247fb4ad37_Class15 c2_1 ) ) ( type_e929f697_27cb_4ab0_84ac_d1247fb4ad37_Class28 c2_1 ) ) ( type_e929f697_27cb_4ab0_84ac_d1247fb4ad37_Class54 c2_1 ) ) (and (and (and (and (and (and ( type_e929f697_27cb_4ab0_84ac_d1247fb4ad37_Class2 c2_2 )  ( type_e929f697_27cb_4ab0_84ac_d1247fb4ad37_Class36 c2_2 ) ) ( type_e929f697_27cb_4ab0_84ac_d1247fb4ad37_Class35 c2_2 ) ) ( type_e929f697_27cb_4ab0_84ac_d1247fb4ad37_Class27 c2_2 ) ) ( type_e929f697_27cb_4ab0_84ac_d1247fb4ad37_Class15 c2_2 ) ) ( type_e929f697_27cb_4ab0_84ac_d1247fb4ad37_Class28 c2_2 ) ) ( type_e929f697_27cb_4ab0_84ac_d1247fb4ad37_Class54 c2_2 ) )) (< ( class2_Class2IntAttr4 ( obj_2168b599_b850_4412_9fed_620c29bb2beb c2_1 )  )  ( class2_Class2IntAttr3 ( obj_2168b599_b850_4412_9fed_620c29bb2beb c2_2 )  ) ))):named l0))
(assert (! (forall ((v Int)) (=> (and (and (and (and (and (and ( type_e929f697_27cb_4ab0_84ac_d1247fb4ad37_Class2 v )  ( type_e929f697_27cb_4ab0_84ac_d1247fb4ad37_Class36 v ) ) ( type_e929f697_27cb_4ab0_84ac_d1247fb4ad37_Class35 v ) ) ( type_e929f697_27cb_4ab0_84ac_d1247fb4ad37_Class27 v ) ) ( type_e929f697_27cb_4ab0_84ac_d1247fb4ad37_Class15 v ) ) ( type_e929f697_27cb_4ab0_84ac_d1247fb4ad37_Class28 v ) ) ( type_e929f697_27cb_4ab0_84ac_d1247fb4ad37_Class54 v ) ) (> ( class2_Class2IntAttr3 ( obj_2168b599_b850_4412_9fed_620c29bb2beb v )  )  6))):named l1))
(assert (! (exists ((o Int)) (and (and (and (and (and (and ( type_e929f697_27cb_4ab0_84ac_d1247fb4ad37_Class0 ( obj_2168b599_b850_4412_9fed_620c29bb2beb o )  )  ( type_e929f697_27cb_4ab0_84ac_d1247fb4ad37_Class44 ( obj_2168b599_b850_4412_9fed_620c29bb2beb o )  ) ) ( type_e929f697_27cb_4ab0_84ac_d1247fb4ad37_Class36 ( obj_2168b599_b850_4412_9fed_620c29bb2beb o )  ) ) ( type_e929f697_27cb_4ab0_84ac_d1247fb4ad37_Class35 ( obj_2168b599_b850_4412_9fed_620c29bb2beb o )  ) ) ( type_e929f697_27cb_4ab0_84ac_d1247fb4ad37_Class27 ( obj_2168b599_b850_4412_9fed_620c29bb2beb o )  ) ) ( type_e929f697_27cb_4ab0_84ac_d1247fb4ad37_Class15 ( obj_2168b599_b850_4412_9fed_620c29bb2beb o )  ) ) ( type_e929f697_27cb_4ab0_84ac_d1247fb4ad37_Class28 ( obj_2168b599_b850_4412_9fed_620c29bb2beb o )  ) )):named c0))
(assert (! (exists ((o Int)) ( type_e929f697_27cb_4ab0_84ac_d1247fb4ad37_Class1 ( obj_2168b599_b850_4412_9fed_620c29bb2beb o )  ) ):named c1))
(assert (! (exists ((o Int)) (and (and ( type_e929f697_27cb_4ab0_84ac_d1247fb4ad37_Class10 ( obj_2168b599_b850_4412_9fed_620c29bb2beb o )  )  ( type_e929f697_27cb_4ab0_84ac_d1247fb4ad37_Class15 ( obj_2168b599_b850_4412_9fed_620c29bb2beb o )  ) ) ( type_e929f697_27cb_4ab0_84ac_d1247fb4ad37_Class21 ( obj_2168b599_b850_4412_9fed_620c29bb2beb o )  ) )):named c2))
(assert (! (exists ((o Int)) ( type_e929f697_27cb_4ab0_84ac_d1247fb4ad37_Class11 ( obj_2168b599_b850_4412_9fed_620c29bb2beb o )  ) ):named c3))
(assert (! (exists ((o Int)) (and (and ( type_e929f697_27cb_4ab0_84ac_d1247fb4ad37_Class12 ( obj_2168b599_b850_4412_9fed_620c29bb2beb o )  )  ( type_e929f697_27cb_4ab0_84ac_d1247fb4ad37_Class33 ( obj_2168b599_b850_4412_9fed_620c29bb2beb o )  ) ) ( type_e929f697_27cb_4ab0_84ac_d1247fb4ad37_Class15 ( obj_2168b599_b850_4412_9fed_620c29bb2beb o )  ) )):named c4))
(assert (! (exists ((o Int)) ( type_e929f697_27cb_4ab0_84ac_d1247fb4ad37_Class13 ( obj_2168b599_b850_4412_9fed_620c29bb2beb o )  ) ):named c5))
(assert (! (exists ((o Int)) (and (and (and (and (and (and ( type_e929f697_27cb_4ab0_84ac_d1247fb4ad37_Class14 ( obj_2168b599_b850_4412_9fed_620c29bb2beb o )  )  ( type_e929f697_27cb_4ab0_84ac_d1247fb4ad37_Class36 ( obj_2168b599_b850_4412_9fed_620c29bb2beb o )  ) ) ( type_e929f697_27cb_4ab0_84ac_d1247fb4ad37_Class35 ( obj_2168b599_b850_4412_9fed_620c29bb2beb o )  ) ) ( type_e929f697_27cb_4ab0_84ac_d1247fb4ad37_Class27 ( obj_2168b599_b850_4412_9fed_620c29bb2beb o )  ) ) ( type_e929f697_27cb_4ab0_84ac_d1247fb4ad37_Class9 ( obj_2168b599_b850_4412_9fed_620c29bb2beb o )  ) ) ( type_e929f697_27cb_4ab0_84ac_d1247fb4ad37_Class15 ( obj_2168b599_b850_4412_9fed_620c29bb2beb o )  ) ) ( type_e929f697_27cb_4ab0_84ac_d1247fb4ad37_Class28 ( obj_2168b599_b850_4412_9fed_620c29bb2beb o )  ) )):named c6))
(assert (! (exists ((o Int)) ( type_e929f697_27cb_4ab0_84ac_d1247fb4ad37_Class15 ( obj_2168b599_b850_4412_9fed_620c29bb2beb o )  ) ):named c7))
(assert (! (exists ((o Int)) ( type_e929f697_27cb_4ab0_84ac_d1247fb4ad37_Class16 ( obj_2168b599_b850_4412_9fed_620c29bb2beb o )  ) ):named c8))
(assert (! (exists ((o Int)) (and (and (and (and (and (and ( type_e929f697_27cb_4ab0_84ac_d1247fb4ad37_Class17 ( obj_2168b599_b850_4412_9fed_620c29bb2beb o )  )  ( type_e929f697_27cb_4ab0_84ac_d1247fb4ad37_Class44 ( obj_2168b599_b850_4412_9fed_620c29bb2beb o )  ) ) ( type_e929f697_27cb_4ab0_84ac_d1247fb4ad37_Class36 ( obj_2168b599_b850_4412_9fed_620c29bb2beb o )  ) ) ( type_e929f697_27cb_4ab0_84ac_d1247fb4ad37_Class35 ( obj_2168b599_b850_4412_9fed_620c29bb2beb o )  ) ) ( type_e929f697_27cb_4ab0_84ac_d1247fb4ad37_Class27 ( obj_2168b599_b850_4412_9fed_620c29bb2beb o )  ) ) ( type_e929f697_27cb_4ab0_84ac_d1247fb4ad37_Class15 ( obj_2168b599_b850_4412_9fed_620c29bb2beb o )  ) ) ( type_e929f697_27cb_4ab0_84ac_d1247fb4ad37_Class28 ( obj_2168b599_b850_4412_9fed_620c29bb2beb o )  ) )):named c9))
(assert (! (exists ((o Int)) ( type_e929f697_27cb_4ab0_84ac_d1247fb4ad37_Class18 ( obj_2168b599_b850_4412_9fed_620c29bb2beb o )  ) ):named c10))
(assert (! (exists ((o Int)) (and (and (and (and (and (and ( type_e929f697_27cb_4ab0_84ac_d1247fb4ad37_Class19 ( obj_2168b599_b850_4412_9fed_620c29bb2beb o )  )  ( type_e929f697_27cb_4ab0_84ac_d1247fb4ad37_Class36 ( obj_2168b599_b850_4412_9fed_620c29bb2beb o )  ) ) ( type_e929f697_27cb_4ab0_84ac_d1247fb4ad37_Class35 ( obj_2168b599_b850_4412_9fed_620c29bb2beb o )  ) ) ( type_e929f697_27cb_4ab0_84ac_d1247fb4ad37_Class27 ( obj_2168b599_b850_4412_9fed_620c29bb2beb o )  ) ) ( type_e929f697_27cb_4ab0_84ac_d1247fb4ad37_Class9 ( obj_2168b599_b850_4412_9fed_620c29bb2beb o )  ) ) ( type_e929f697_27cb_4ab0_84ac_d1247fb4ad37_Class15 ( obj_2168b599_b850_4412_9fed_620c29bb2beb o )  ) ) ( type_e929f697_27cb_4ab0_84ac_d1247fb4ad37_Class28 ( obj_2168b599_b850_4412_9fed_620c29bb2beb o )  ) )):named c11))
(assert (! (exists ((o Int)) (and (and (and (and (and (and ( type_e929f697_27cb_4ab0_84ac_d1247fb4ad37_Class2 ( obj_2168b599_b850_4412_9fed_620c29bb2beb o )  )  ( type_e929f697_27cb_4ab0_84ac_d1247fb4ad37_Class36 ( obj_2168b599_b850_4412_9fed_620c29bb2beb o )  ) ) ( type_e929f697_27cb_4ab0_84ac_d1247fb4ad37_Class35 ( obj_2168b599_b850_4412_9fed_620c29bb2beb o )  ) ) ( type_e929f697_27cb_4ab0_84ac_d1247fb4ad37_Class27 ( obj_2168b599_b850_4412_9fed_620c29bb2beb o )  ) ) ( type_e929f697_27cb_4ab0_84ac_d1247fb4ad37_Class15 ( obj_2168b599_b850_4412_9fed_620c29bb2beb o )  ) ) ( type_e929f697_27cb_4ab0_84ac_d1247fb4ad37_Class28 ( obj_2168b599_b850_4412_9fed_620c29bb2beb o )  ) ) ( type_e929f697_27cb_4ab0_84ac_d1247fb4ad37_Class54 ( obj_2168b599_b850_4412_9fed_620c29bb2beb o )  ) )):named c12))
(assert (! (exists ((o Int)) (and ( type_e929f697_27cb_4ab0_84ac_d1247fb4ad37_Class20 ( obj_2168b599_b850_4412_9fed_620c29bb2beb o )  )  ( type_e929f697_27cb_4ab0_84ac_d1247fb4ad37_Class15 ( obj_2168b599_b850_4412_9fed_620c29bb2beb o )  ) )):named c13))
(assert (! (exists ((o Int)) (and ( type_e929f697_27cb_4ab0_84ac_d1247fb4ad37_Class21 ( obj_2168b599_b850_4412_9fed_620c29bb2beb o )  )  ( type_e929f697_27cb_4ab0_84ac_d1247fb4ad37_Class15 ( obj_2168b599_b850_4412_9fed_620c29bb2beb o )  ) )):named c14))
(assert (! (exists ((o Int)) (and (and (and ( type_e929f697_27cb_4ab0_84ac_d1247fb4ad37_Class22 ( obj_2168b599_b850_4412_9fed_620c29bb2beb o )  )  ( type_e929f697_27cb_4ab0_84ac_d1247fb4ad37_Class15 ( obj_2168b599_b850_4412_9fed_620c29bb2beb o )  ) ) ( type_e929f697_27cb_4ab0_84ac_d1247fb4ad37_Class48 ( obj_2168b599_b850_4412_9fed_620c29bb2beb o )  ) ) ( type_e929f697_27cb_4ab0_84ac_d1247fb4ad37_Class43 ( obj_2168b599_b850_4412_9fed_620c29bb2beb o )  ) )):named c15))
(assert (! (exists ((o Int)) ( type_e929f697_27cb_4ab0_84ac_d1247fb4ad37_Class23 ( obj_2168b599_b850_4412_9fed_620c29bb2beb o )  ) ):named c16))
(assert (! (exists ((o Int)) ( type_e929f697_27cb_4ab0_84ac_d1247fb4ad37_Class24 ( obj_2168b599_b850_4412_9fed_620c29bb2beb o )  ) ):named c17))
(assert (! (exists ((o Int)) (and (and (and ( type_e929f697_27cb_4ab0_84ac_d1247fb4ad37_Class25 ( obj_2168b599_b850_4412_9fed_620c29bb2beb o )  )  ( type_e929f697_27cb_4ab0_84ac_d1247fb4ad37_Class12 ( obj_2168b599_b850_4412_9fed_620c29bb2beb o )  ) ) ( type_e929f697_27cb_4ab0_84ac_d1247fb4ad37_Class33 ( obj_2168b599_b850_4412_9fed_620c29bb2beb o )  ) ) ( type_e929f697_27cb_4ab0_84ac_d1247fb4ad37_Class15 ( obj_2168b599_b850_4412_9fed_620c29bb2beb o )  ) )):named c18))
(assert (! (exists ((o Int)) ( type_e929f697_27cb_4ab0_84ac_d1247fb4ad37_Class26 ( obj_2168b599_b850_4412_9fed_620c29bb2beb o )  ) ):named c19))
(assert (! (exists ((o Int)) (and ( type_e929f697_27cb_4ab0_84ac_d1247fb4ad37_Class27 ( obj_2168b599_b850_4412_9fed_620c29bb2beb o )  )  ( type_e929f697_27cb_4ab0_84ac_d1247fb4ad37_Class15 ( obj_2168b599_b850_4412_9fed_620c29bb2beb o )  ) )):named c20))
(assert (! (exists ((o Int)) (and (and ( type_e929f697_27cb_4ab0_84ac_d1247fb4ad37_Class28 ( obj_2168b599_b850_4412_9fed_620c29bb2beb o )  )  ( type_e929f697_27cb_4ab0_84ac_d1247fb4ad37_Class27 ( obj_2168b599_b850_4412_9fed_620c29bb2beb o )  ) ) ( type_e929f697_27cb_4ab0_84ac_d1247fb4ad37_Class15 ( obj_2168b599_b850_4412_9fed_620c29bb2beb o )  ) )):named c21))
(assert (! (exists ((o Int)) (and (and (and (and (and ( type_e929f697_27cb_4ab0_84ac_d1247fb4ad37_Class29 ( obj_2168b599_b850_4412_9fed_620c29bb2beb o )  )  ( type_e929f697_27cb_4ab0_84ac_d1247fb4ad37_Class36 ( obj_2168b599_b850_4412_9fed_620c29bb2beb o )  ) ) ( type_e929f697_27cb_4ab0_84ac_d1247fb4ad37_Class35 ( obj_2168b599_b850_4412_9fed_620c29bb2beb o )  ) ) ( type_e929f697_27cb_4ab0_84ac_d1247fb4ad37_Class27 ( obj_2168b599_b850_4412_9fed_620c29bb2beb o )  ) ) ( type_e929f697_27cb_4ab0_84ac_d1247fb4ad37_Class15 ( obj_2168b599_b850_4412_9fed_620c29bb2beb o )  ) ) ( type_e929f697_27cb_4ab0_84ac_d1247fb4ad37_Class28 ( obj_2168b599_b850_4412_9fed_620c29bb2beb o )  ) )):named c22))
(assert (! (exists ((o Int)) ( type_e929f697_27cb_4ab0_84ac_d1247fb4ad37_Class3 ( obj_2168b599_b850_4412_9fed_620c29bb2beb o )  ) ):named c23))
(assert (! (exists ((o Int)) (and (and ( type_e929f697_27cb_4ab0_84ac_d1247fb4ad37_Class30 ( obj_2168b599_b850_4412_9fed_620c29bb2beb o )  )  ( type_e929f697_27cb_4ab0_84ac_d1247fb4ad37_Class33 ( obj_2168b599_b850_4412_9fed_620c29bb2beb o )  ) ) ( type_e929f697_27cb_4ab0_84ac_d1247fb4ad37_Class15 ( obj_2168b599_b850_4412_9fed_620c29bb2beb o )  ) )):named c24))
(assert (! (exists ((o Int)) (and (and (and (and (and (and ( type_e929f697_27cb_4ab0_84ac_d1247fb4ad37_Class31 ( obj_2168b599_b850_4412_9fed_620c29bb2beb o )  )  ( type_e929f697_27cb_4ab0_84ac_d1247fb4ad37_Class36 ( obj_2168b599_b850_4412_9fed_620c29bb2beb o )  ) ) ( type_e929f697_27cb_4ab0_84ac_d1247fb4ad37_Class35 ( obj_2168b599_b850_4412_9fed_620c29bb2beb o )  ) ) ( type_e929f697_27cb_4ab0_84ac_d1247fb4ad37_Class27 ( obj_2168b599_b850_4412_9fed_620c29bb2beb o )  ) ) ( type_e929f697_27cb_4ab0_84ac_d1247fb4ad37_Class15 ( obj_2168b599_b850_4412_9fed_620c29bb2beb o )  ) ) ( type_e929f697_27cb_4ab0_84ac_d1247fb4ad37_Class28 ( obj_2168b599_b850_4412_9fed_620c29bb2beb o )  ) ) ( type_e929f697_27cb_4ab0_84ac_d1247fb4ad37_Class54 ( obj_2168b599_b850_4412_9fed_620c29bb2beb o )  ) )):named c25))
(assert (! (exists ((o Int)) ( type_e929f697_27cb_4ab0_84ac_d1247fb4ad37_Class32 ( obj_2168b599_b850_4412_9fed_620c29bb2beb o )  ) ):named c26))
(assert (! (exists ((o Int)) (and ( type_e929f697_27cb_4ab0_84ac_d1247fb4ad37_Class33 ( obj_2168b599_b850_4412_9fed_620c29bb2beb o )  )  ( type_e929f697_27cb_4ab0_84ac_d1247fb4ad37_Class15 ( obj_2168b599_b850_4412_9fed_620c29bb2beb o )  ) )):named c27))
(assert (! (exists ((o Int)) ( type_e929f697_27cb_4ab0_84ac_d1247fb4ad37_Class34 ( obj_2168b599_b850_4412_9fed_620c29bb2beb o )  ) ):named c28))
(assert (! (exists ((o Int)) (and (and (and (and ( type_e929f697_27cb_4ab0_84ac_d1247fb4ad37_Class35 ( obj_2168b599_b850_4412_9fed_620c29bb2beb o )  )  ( type_e929f697_27cb_4ab0_84ac_d1247fb4ad37_Class36 ( obj_2168b599_b850_4412_9fed_620c29bb2beb o )  ) ) ( type_e929f697_27cb_4ab0_84ac_d1247fb4ad37_Class27 ( obj_2168b599_b850_4412_9fed_620c29bb2beb o )  ) ) ( type_e929f697_27cb_4ab0_84ac_d1247fb4ad37_Class15 ( obj_2168b599_b850_4412_9fed_620c29bb2beb o )  ) ) ( type_e929f697_27cb_4ab0_84ac_d1247fb4ad37_Class28 ( obj_2168b599_b850_4412_9fed_620c29bb2beb o )  ) )):named c29))
(assert (! (exists ((o Int)) (and (and (and ( type_e929f697_27cb_4ab0_84ac_d1247fb4ad37_Class36 ( obj_2168b599_b850_4412_9fed_620c29bb2beb o )  )  ( type_e929f697_27cb_4ab0_84ac_d1247fb4ad37_Class27 ( obj_2168b599_b850_4412_9fed_620c29bb2beb o )  ) ) ( type_e929f697_27cb_4ab0_84ac_d1247fb4ad37_Class15 ( obj_2168b599_b850_4412_9fed_620c29bb2beb o )  ) ) ( type_e929f697_27cb_4ab0_84ac_d1247fb4ad37_Class28 ( obj_2168b599_b850_4412_9fed_620c29bb2beb o )  ) )):named c30))
(assert (! (exists ((o Int)) (and ( type_e929f697_27cb_4ab0_84ac_d1247fb4ad37_Class37 ( obj_2168b599_b850_4412_9fed_620c29bb2beb o )  )  ( type_e929f697_27cb_4ab0_84ac_d1247fb4ad37_Class15 ( obj_2168b599_b850_4412_9fed_620c29bb2beb o )  ) )):named c31))
(assert (! (exists ((o Int)) (and (and (and (and ( type_e929f697_27cb_4ab0_84ac_d1247fb4ad37_Class38 ( obj_2168b599_b850_4412_9fed_620c29bb2beb o )  )  ( type_e929f697_27cb_4ab0_84ac_d1247fb4ad37_Class22 ( obj_2168b599_b850_4412_9fed_620c29bb2beb o )  ) ) ( type_e929f697_27cb_4ab0_84ac_d1247fb4ad37_Class15 ( obj_2168b599_b850_4412_9fed_620c29bb2beb o )  ) ) ( type_e929f697_27cb_4ab0_84ac_d1247fb4ad37_Class48 ( obj_2168b599_b850_4412_9fed_620c29bb2beb o )  ) ) ( type_e929f697_27cb_4ab0_84ac_d1247fb4ad37_Class43 ( obj_2168b599_b850_4412_9fed_620c29bb2beb o )  ) )):named c32))
(assert (! (exists ((o Int)) ( type_e929f697_27cb_4ab0_84ac_d1247fb4ad37_Class39 ( obj_2168b599_b850_4412_9fed_620c29bb2beb o )  ) ):named c33))
(assert (! (exists ((o Int)) (and (and (and (and (and (and ( type_e929f697_27cb_4ab0_84ac_d1247fb4ad37_Class4 ( obj_2168b599_b850_4412_9fed_620c29bb2beb o )  )  ( type_e929f697_27cb_4ab0_84ac_d1247fb4ad37_Class44 ( obj_2168b599_b850_4412_9fed_620c29bb2beb o )  ) ) ( type_e929f697_27cb_4ab0_84ac_d1247fb4ad37_Class36 ( obj_2168b599_b850_4412_9fed_620c29bb2beb o )  ) ) ( type_e929f697_27cb_4ab0_84ac_d1247fb4ad37_Class35 ( obj_2168b599_b850_4412_9fed_620c29bb2beb o )  ) ) ( type_e929f697_27cb_4ab0_84ac_d1247fb4ad37_Class27 ( obj_2168b599_b850_4412_9fed_620c29bb2beb o )  ) ) ( type_e929f697_27cb_4ab0_84ac_d1247fb4ad37_Class15 ( obj_2168b599_b850_4412_9fed_620c29bb2beb o )  ) ) ( type_e929f697_27cb_4ab0_84ac_d1247fb4ad37_Class28 ( obj_2168b599_b850_4412_9fed_620c29bb2beb o )  ) )):named c34))
(assert (! (exists ((o Int)) ( type_e929f697_27cb_4ab0_84ac_d1247fb4ad37_Class40 ( obj_2168b599_b850_4412_9fed_620c29bb2beb o )  ) ):named c35))
(assert (! (exists ((o Int)) ( type_e929f697_27cb_4ab0_84ac_d1247fb4ad37_Class41 ( obj_2168b599_b850_4412_9fed_620c29bb2beb o )  ) ):named c36))
(assert (! (exists ((o Int)) ( type_e929f697_27cb_4ab0_84ac_d1247fb4ad37_Class42 ( obj_2168b599_b850_4412_9fed_620c29bb2beb o )  ) ):named c37))
(assert (! (exists ((o Int)) (and ( type_e929f697_27cb_4ab0_84ac_d1247fb4ad37_Class43 ( obj_2168b599_b850_4412_9fed_620c29bb2beb o )  )  ( type_e929f697_27cb_4ab0_84ac_d1247fb4ad37_Class15 ( obj_2168b599_b850_4412_9fed_620c29bb2beb o )  ) )):named c38))
(assert (! (exists ((o Int)) (and (and (and (and (and ( type_e929f697_27cb_4ab0_84ac_d1247fb4ad37_Class44 ( obj_2168b599_b850_4412_9fed_620c29bb2beb o )  )  ( type_e929f697_27cb_4ab0_84ac_d1247fb4ad37_Class36 ( obj_2168b599_b850_4412_9fed_620c29bb2beb o )  ) ) ( type_e929f697_27cb_4ab0_84ac_d1247fb4ad37_Class35 ( obj_2168b599_b850_4412_9fed_620c29bb2beb o )  ) ) ( type_e929f697_27cb_4ab0_84ac_d1247fb4ad37_Class27 ( obj_2168b599_b850_4412_9fed_620c29bb2beb o )  ) ) ( type_e929f697_27cb_4ab0_84ac_d1247fb4ad37_Class15 ( obj_2168b599_b850_4412_9fed_620c29bb2beb o )  ) ) ( type_e929f697_27cb_4ab0_84ac_d1247fb4ad37_Class28 ( obj_2168b599_b850_4412_9fed_620c29bb2beb o )  ) )):named c39))
(assert (! (exists ((o Int)) (and (and (and (and (and (and ( type_e929f697_27cb_4ab0_84ac_d1247fb4ad37_Class45 ( obj_2168b599_b850_4412_9fed_620c29bb2beb o )  )  ( type_e929f697_27cb_4ab0_84ac_d1247fb4ad37_Class36 ( obj_2168b599_b850_4412_9fed_620c29bb2beb o )  ) ) ( type_e929f697_27cb_4ab0_84ac_d1247fb4ad37_Class35 ( obj_2168b599_b850_4412_9fed_620c29bb2beb o )  ) ) ( type_e929f697_27cb_4ab0_84ac_d1247fb4ad37_Class27 ( obj_2168b599_b850_4412_9fed_620c29bb2beb o )  ) ) ( type_e929f697_27cb_4ab0_84ac_d1247fb4ad37_Class9 ( obj_2168b599_b850_4412_9fed_620c29bb2beb o )  ) ) ( type_e929f697_27cb_4ab0_84ac_d1247fb4ad37_Class15 ( obj_2168b599_b850_4412_9fed_620c29bb2beb o )  ) ) ( type_e929f697_27cb_4ab0_84ac_d1247fb4ad37_Class28 ( obj_2168b599_b850_4412_9fed_620c29bb2beb o )  ) )):named c40))
(assert (! (exists ((o Int)) (and (and ( type_e929f697_27cb_4ab0_84ac_d1247fb4ad37_Class46 ( obj_2168b599_b850_4412_9fed_620c29bb2beb o )  )  ( type_e929f697_27cb_4ab0_84ac_d1247fb4ad37_Class15 ( obj_2168b599_b850_4412_9fed_620c29bb2beb o )  ) ) ( type_e929f697_27cb_4ab0_84ac_d1247fb4ad37_Class5 ( obj_2168b599_b850_4412_9fed_620c29bb2beb o )  ) )):named c41))
(assert (! (exists ((o Int)) ( type_e929f697_27cb_4ab0_84ac_d1247fb4ad37_Class47 ( obj_2168b599_b850_4412_9fed_620c29bb2beb o )  ) ):named c42))
(assert (! (exists ((o Int)) (and ( type_e929f697_27cb_4ab0_84ac_d1247fb4ad37_Class48 ( obj_2168b599_b850_4412_9fed_620c29bb2beb o )  )  ( type_e929f697_27cb_4ab0_84ac_d1247fb4ad37_Class15 ( obj_2168b599_b850_4412_9fed_620c29bb2beb o )  ) )):named c43))
(assert (! (exists ((o Int)) ( type_e929f697_27cb_4ab0_84ac_d1247fb4ad37_Class49 ( obj_2168b599_b850_4412_9fed_620c29bb2beb o )  ) ):named c44))
(assert (! (exists ((o Int)) (and ( type_e929f697_27cb_4ab0_84ac_d1247fb4ad37_Class5 ( obj_2168b599_b850_4412_9fed_620c29bb2beb o )  )  ( type_e929f697_27cb_4ab0_84ac_d1247fb4ad37_Class15 ( obj_2168b599_b850_4412_9fed_620c29bb2beb o )  ) )):named c45))
(assert (! (exists ((o Int)) ( type_e929f697_27cb_4ab0_84ac_d1247fb4ad37_Class50 ( obj_2168b599_b850_4412_9fed_620c29bb2beb o )  ) ):named c46))
(assert (! (exists ((o Int)) ( type_e929f697_27cb_4ab0_84ac_d1247fb4ad37_Class51 ( obj_2168b599_b850_4412_9fed_620c29bb2beb o )  ) ):named c47))
(assert (! (exists ((o Int)) ( type_e929f697_27cb_4ab0_84ac_d1247fb4ad37_Class52 ( obj_2168b599_b850_4412_9fed_620c29bb2beb o )  ) ):named c48))
(assert (! (exists ((o Int)) ( type_e929f697_27cb_4ab0_84ac_d1247fb4ad37_Class53 ( obj_2168b599_b850_4412_9fed_620c29bb2beb o )  ) ):named c49))
(assert (! (exists ((o Int)) (and (and (and (and (and ( type_e929f697_27cb_4ab0_84ac_d1247fb4ad37_Class54 ( obj_2168b599_b850_4412_9fed_620c29bb2beb o )  )  ( type_e929f697_27cb_4ab0_84ac_d1247fb4ad37_Class36 ( obj_2168b599_b850_4412_9fed_620c29bb2beb o )  ) ) ( type_e929f697_27cb_4ab0_84ac_d1247fb4ad37_Class35 ( obj_2168b599_b850_4412_9fed_620c29bb2beb o )  ) ) ( type_e929f697_27cb_4ab0_84ac_d1247fb4ad37_Class27 ( obj_2168b599_b850_4412_9fed_620c29bb2beb o )  ) ) ( type_e929f697_27cb_4ab0_84ac_d1247fb4ad37_Class15 ( obj_2168b599_b850_4412_9fed_620c29bb2beb o )  ) ) ( type_e929f697_27cb_4ab0_84ac_d1247fb4ad37_Class28 ( obj_2168b599_b850_4412_9fed_620c29bb2beb o )  ) )):named c50))
(assert (! (exists ((o Int)) ( type_e929f697_27cb_4ab0_84ac_d1247fb4ad37_Class55 ( obj_2168b599_b850_4412_9fed_620c29bb2beb o )  ) ):named c51))
(assert (! (exists ((o Int)) ( type_e929f697_27cb_4ab0_84ac_d1247fb4ad37_Class56 ( obj_2168b599_b850_4412_9fed_620c29bb2beb o )  ) ):named c52))
(assert (! (exists ((o Int)) (and (and (and (and ( type_e929f697_27cb_4ab0_84ac_d1247fb4ad37_Class6 ( obj_2168b599_b850_4412_9fed_620c29bb2beb o )  )  ( type_e929f697_27cb_4ab0_84ac_d1247fb4ad37_Class22 ( obj_2168b599_b850_4412_9fed_620c29bb2beb o )  ) ) ( type_e929f697_27cb_4ab0_84ac_d1247fb4ad37_Class15 ( obj_2168b599_b850_4412_9fed_620c29bb2beb o )  ) ) ( type_e929f697_27cb_4ab0_84ac_d1247fb4ad37_Class48 ( obj_2168b599_b850_4412_9fed_620c29bb2beb o )  ) ) ( type_e929f697_27cb_4ab0_84ac_d1247fb4ad37_Class43 ( obj_2168b599_b850_4412_9fed_620c29bb2beb o )  ) )):named c53))
(assert (! (exists ((o Int)) ( type_e929f697_27cb_4ab0_84ac_d1247fb4ad37_Class7 ( obj_2168b599_b850_4412_9fed_620c29bb2beb o )  ) ):named c54))
(assert (! (exists ((o Int)) ( type_e929f697_27cb_4ab0_84ac_d1247fb4ad37_Class8 ( obj_2168b599_b850_4412_9fed_620c29bb2beb o )  ) ):named c55))
(assert (! (exists ((o Int)) (and (and (and (and (and ( type_e929f697_27cb_4ab0_84ac_d1247fb4ad37_Class9 ( obj_2168b599_b850_4412_9fed_620c29bb2beb o )  )  ( type_e929f697_27cb_4ab0_84ac_d1247fb4ad37_Class36 ( obj_2168b599_b850_4412_9fed_620c29bb2beb o )  ) ) ( type_e929f697_27cb_4ab0_84ac_d1247fb4ad37_Class35 ( obj_2168b599_b850_4412_9fed_620c29bb2beb o )  ) ) ( type_e929f697_27cb_4ab0_84ac_d1247fb4ad37_Class27 ( obj_2168b599_b850_4412_9fed_620c29bb2beb o )  ) ) ( type_e929f697_27cb_4ab0_84ac_d1247fb4ad37_Class15 ( obj_2168b599_b850_4412_9fed_620c29bb2beb o )  ) ) ( type_e929f697_27cb_4ab0_84ac_d1247fb4ad37_Class28 ( obj_2168b599_b850_4412_9fed_620c29bb2beb o )  ) )):named c56))

 ;end of formula 